c Modular CNF with 4 modules
c Generated CNF instance
p cnf 40 640
8 7 9 0
8 7 -9 0
8 -7 9 0
-8 7 9 0
10 5 6 0
10 5 -6 0
10 -5 6 0
-10 5 6 0
9 3 8 0
9 3 -8 0
9 -3 8 0
-9 3 8 0
2 6 9 0
2 6 -9 0
2 -6 9 0
-2 6 9 0
4 1 9 0
4 1 -9 0
4 -1 9 0
-4 1 9 0
5 1 6 0
5 1 -6 0
5 -1 6 0
-5 1 6 0
8 2 5 0
8 2 -5 0
8 -2 5 0
-8 2 5 0
4 2 5 0
4 2 -5 0
4 -2 5 0
-4 2 5 0
2 8 4 0
2 8 -4 0
2 -8 4 0
-2 8 4 0
10 7 6 0
10 7 -6 0
10 -7 6 0
-10 7 6 0
9 1 5 0
9 1 -5 0
9 -1 5 0
-9 1 5 0
5 10 7 0
5 10 -7 0
5 -10 7 0
-5 10 7 0
10 8 9 0
10 8 -9 0
10 -8 9 0
-10 8 9 0
8 6 5 0
8 6 -5 0
8 -6 5 0
-8 6 5 0
10 2 1 0
10 2 -1 0
10 -2 1 0
-10 2 1 0
6 7 5 0
6 7 -5 0
6 -7 5 0
-6 7 5 0
9 6 4 0
9 6 -4 0
9 -6 4 0
-9 6 4 0
10 8 3 0
10 8 -3 0
10 -8 3 0
-10 8 3 0
1 9 10 0
1 9 -10 0
1 -9 10 0
-1 9 10 0
8 1 9 0
8 1 -9 0
8 -1 9 0
-8 1 9 0
4 3 8 0
4 3 -8 0
4 -3 8 0
-4 3 8 0
2 4 8 0
2 4 -8 0
2 -4 8 0
-2 4 8 0
8 4 6 0
8 4 -6 0
8 -4 6 0
-8 4 6 0
3 4 10 0
3 4 -10 0
3 -4 10 0
-3 4 10 0
5 7 8 0
5 7 -8 0
5 -7 8 0
-5 7 8 0
6 8 1 0
6 8 -1 0
6 -8 1 0
-6 8 1 0
7 10 4 0
7 10 -4 0
7 -10 4 0
-7 10 4 0
2 8 6 0
2 8 -6 0
2 -8 6 0
-2 8 6 0
6 4 9 0
6 4 -9 0
6 -4 9 0
-6 4 9 0
7 4 10 0
7 4 -10 0
7 -4 10 0
-7 4 10 0
4 6 1 0
4 6 -1 0
4 -6 1 0
-4 6 1 0
10 7 5 0
10 7 -5 0
10 -7 5 0
-10 7 5 0
2 6 1 0
2 6 -1 0
2 -6 1 0
-2 6 1 0
1 2 3 0
1 2 -3 0
1 -2 3 0
-1 2 3 0
8 7 1 0
8 7 -1 0
8 -7 1 0
-8 7 1 0
4 8 6 0
4 8 -6 0
4 -8 6 0
-4 8 6 0
7 6 8 0
7 6 -8 0
7 -6 8 0
-7 6 8 0
3 5 10 0
3 5 -10 0
3 -5 10 0
-3 5 10 0
2 9 3 0
2 9 -3 0
2 -9 3 0
-2 9 3 0
3 2 6 0
3 2 -6 0
3 -2 6 0
-3 2 6 0
15 12 11 0
15 12 -11 0
15 -12 11 0
-15 12 11 0
15 18 14 0
15 18 -14 0
15 -18 14 0
-15 18 14 0
12 13 15 0
12 13 -15 0
12 -13 15 0
-12 13 15 0
18 17 16 0
18 17 -16 0
18 -17 16 0
-18 17 16 0
17 14 20 0
17 14 -20 0
17 -14 20 0
-17 14 20 0
17 19 16 0
17 19 -16 0
17 -19 16 0
-17 19 16 0
12 14 19 0
12 14 -19 0
12 -14 19 0
-12 14 19 0
17 15 11 0
17 15 -11 0
17 -15 11 0
-17 15 11 0
19 11 17 0
19 11 -17 0
19 -11 17 0
-19 11 17 0
12 17 11 0
12 17 -11 0
12 -17 11 0
-12 17 11 0
16 18 20 0
16 18 -20 0
16 -18 20 0
-16 18 20 0
18 16 15 0
18 16 -15 0
18 -16 15 0
-18 16 15 0
12 15 20 0
12 15 -20 0
12 -15 20 0
-12 15 20 0
12 18 20 0
12 18 -20 0
12 -18 20 0
-12 18 20 0
20 17 16 0
20 17 -16 0
20 -17 16 0
-20 17 16 0
20 13 16 0
20 13 -16 0
20 -13 16 0
-20 13 16 0
20 15 17 0
20 15 -17 0
20 -15 17 0
-20 15 17 0
19 14 13 0
19 14 -13 0
19 -14 13 0
-19 14 13 0
17 13 16 0
17 13 -16 0
17 -13 16 0
-17 13 16 0
18 20 16 0
18 20 -16 0
18 -20 16 0
-18 20 16 0
14 11 17 0
14 11 -17 0
14 -11 17 0
-14 11 17 0
17 16 13 0
17 16 -13 0
17 -16 13 0
-17 16 13 0
12 18 14 0
12 18 -14 0
12 -18 14 0
-12 18 14 0
17 19 18 0
17 19 -18 0
17 -19 18 0
-17 19 18 0
17 19 13 0
17 19 -13 0
17 -19 13 0
-17 19 13 0
14 20 11 0
14 20 -11 0
14 -20 11 0
-14 20 11 0
19 13 16 0
19 13 -16 0
19 -13 16 0
-19 13 16 0
18 17 19 0
18 17 -19 0
18 -17 19 0
-18 17 19 0
16 14 11 0
16 14 -11 0
16 -14 11 0
-16 14 11 0
15 14 17 0
15 14 -17 0
15 -14 17 0
-15 14 17 0
18 12 19 0
18 12 -19 0
18 -12 19 0
-18 12 19 0
12 13 14 0
12 13 -14 0
12 -13 14 0
-12 13 14 0
19 11 20 0
19 11 -20 0
19 -11 20 0
-19 11 20 0
13 19 14 0
13 19 -14 0
13 -19 14 0
-13 19 14 0
15 17 18 0
15 17 -18 0
15 -17 18 0
-15 17 18 0
14 16 18 0
14 16 -18 0
14 -16 18 0
-14 16 18 0
11 20 12 0
11 20 -12 0
11 -20 12 0
-11 20 12 0
13 14 11 0
13 14 -11 0
13 -14 11 0
-13 14 11 0
17 12 11 0
17 12 -11 0
17 -12 11 0
-17 12 11 0
19 11 13 0
19 11 -13 0
19 -11 13 0
-19 11 13 0
26 28 23 0
26 28 -23 0
26 -28 23 0
-26 28 23 0
22 21 25 0
22 21 -25 0
22 -21 25 0
-22 21 25 0
27 30 28 0
27 30 -28 0
27 -30 28 0
-27 30 28 0
28 25 30 0
28 25 -30 0
28 -25 30 0
-28 25 30 0
23 29 24 0
23 29 -24 0
23 -29 24 0
-23 29 24 0
30 25 29 0
30 25 -29 0
30 -25 29 0
-30 25 29 0
21 26 30 0
21 26 -30 0
21 -26 30 0
-21 26 30 0
28 22 27 0
28 22 -27 0
28 -22 27 0
-28 22 27 0
26 25 28 0
26 25 -28 0
26 -25 28 0
-26 25 28 0
27 22 30 0
27 22 -30 0
27 -22 30 0
-27 22 30 0
29 24 22 0
29 24 -22 0
29 -24 22 0
-29 24 22 0
28 29 26 0
28 29 -26 0
28 -29 26 0
-28 29 26 0
29 30 25 0
29 30 -25 0
29 -30 25 0
-29 30 25 0
30 26 27 0
30 26 -27 0
30 -26 27 0
-30 26 27 0
26 24 27 0
26 24 -27 0
26 -24 27 0
-26 24 27 0
28 25 22 0
28 25 -22 0
28 -25 22 0
-28 25 22 0
22 24 29 0
22 24 -29 0
22 -24 29 0
-22 24 29 0
26 27 22 0
26 27 -22 0
26 -27 22 0
-26 27 22 0
25 24 29 0
25 24 -29 0
25 -24 29 0
-25 24 29 0
24 23 22 0
24 23 -22 0
24 -23 22 0
-24 23 22 0
27 28 30 0
27 28 -30 0
27 -28 30 0
-27 28 30 0
24 27 26 0
24 27 -26 0
24 -27 26 0
-24 27 26 0
24 26 22 0
24 26 -22 0
24 -26 22 0
-24 26 22 0
21 26 22 0
21 26 -22 0
21 -26 22 0
-21 26 22 0
23 30 22 0
23 30 -22 0
23 -30 22 0
-23 30 22 0
23 21 27 0
23 21 -27 0
23 -21 27 0
-23 21 27 0
26 25 22 0
26 25 -22 0
26 -25 22 0
-26 25 22 0
23 24 25 0
23 24 -25 0
23 -24 25 0
-23 24 25 0
24 28 27 0
24 28 -27 0
24 -28 27 0
-24 28 27 0
23 27 29 0
23 27 -29 0
23 -27 29 0
-23 27 29 0
26 23 22 0
26 23 -22 0
26 -23 22 0
-26 23 22 0
23 24 28 0
23 24 -28 0
23 -24 28 0
-23 24 28 0
30 24 26 0
30 24 -26 0
30 -24 26 0
-30 24 26 0
25 22 24 0
25 22 -24 0
25 -22 24 0
-25 22 24 0
30 22 28 0
30 22 -28 0
30 -22 28 0
-30 22 28 0
29 27 23 0
29 27 -23 0
29 -27 23 0
-29 27 23 0
29 25 27 0
29 25 -27 0
29 -25 27 0
-29 25 27 0
22 26 27 0
22 26 -27 0
22 -26 27 0
-22 26 27 0
26 25 28 0
26 25 -28 0
26 -25 28 0
-26 25 28 0
28 27 29 0
28 27 -29 0
28 -27 29 0
-28 27 29 0
31 32 37 0
31 32 -37 0
31 -32 37 0
-31 32 37 0
33 34 32 0
33 34 -32 0
33 -34 32 0
-33 34 32 0
34 37 39 0
34 37 -39 0
34 -37 39 0
-34 37 39 0
33 34 35 0
33 34 -35 0
33 -34 35 0
-33 34 35 0
37 32 35 0
37 32 -35 0
37 -32 35 0
-37 32 35 0
31 37 32 0
31 37 -32 0
31 -37 32 0
-31 37 32 0
31 39 34 0
31 39 -34 0
31 -39 34 0
-31 39 34 0
40 33 38 0
40 33 -38 0
40 -33 38 0
-40 33 38 0
35 31 36 0
35 31 -36 0
35 -31 36 0
-35 31 36 0
32 37 40 0
32 37 -40 0
32 -37 40 0
-32 37 40 0
37 36 40 0
37 36 -40 0
37 -36 40 0
-37 36 40 0
31 36 38 0
31 36 -38 0
31 -36 38 0
-31 36 38 0
39 35 31 0
39 35 -31 0
39 -35 31 0
-39 35 31 0
32 34 31 0
32 34 -31 0
32 -34 31 0
-32 34 31 0
39 40 33 0
39 40 -33 0
39 -40 33 0
-39 40 33 0
38 39 37 0
38 39 -37 0
38 -39 37 0
-38 39 37 0
35 37 32 0
35 37 -32 0
35 -37 32 0
-35 37 32 0
39 31 37 0
39 31 -37 0
39 -31 37 0
-39 31 37 0
31 40 35 0
31 40 -35 0
31 -40 35 0
-31 40 35 0
39 40 37 0
39 40 -37 0
39 -40 37 0
-39 40 37 0
40 33 39 0
40 33 -39 0
40 -33 39 0
-40 33 39 0
40 36 31 0
40 36 -31 0
40 -36 31 0
-40 36 31 0
39 35 31 0
39 35 -31 0
39 -35 31 0
-39 35 31 0
31 32 39 0
31 32 -39 0
31 -32 39 0
-31 32 39 0
38 32 35 0
38 32 -35 0
38 -32 35 0
-38 32 35 0
32 39 35 0
32 39 -35 0
32 -39 35 0
-32 39 35 0
40 31 37 0
40 31 -37 0
40 -31 37 0
-40 31 37 0
34 39 36 0
34 39 -36 0
34 -39 36 0
-34 39 36 0
38 36 40 0
38 36 -40 0
38 -36 40 0
-38 36 40 0
40 39 35 0
40 39 -35 0
40 -39 35 0
-40 39 35 0
37 34 33 0
37 34 -33 0
37 -34 33 0
-37 34 33 0
40 37 31 0
40 37 -31 0
40 -37 31 0
-40 37 31 0
32 38 35 0
32 38 -35 0
32 -38 35 0
-32 38 35 0
35 32 38 0
35 32 -38 0
35 -32 38 0
-35 32 38 0
34 39 38 0
34 39 -38 0
34 -39 38 0
-34 39 38 0
32 37 36 0
32 37 -36 0
32 -37 36 0
-32 37 36 0
36 34 32 0
36 34 -32 0
36 -34 32 0
-36 34 32 0
33 32 36 0
33 32 -36 0
33 -32 36 0
-33 32 36 0
40 35 34 0
40 35 -34 0
40 -35 34 0
-40 35 34 0
39 34 36 0
39 34 -36 0
39 -34 36 0
-39 34 36 0
